<instance format="XCSP3" type="CSP">
  <variables>
    <var id="x0"> 4 8 </var>
    <var id="x1"> 0 2 6 9 </var>
    <var id="x2"> 0 2 11 </var>
    <var id="x3"> 0 4 6..8 </var>
    <var id="x4"> 0 6 8 </var>
    <var id="x5"> 2 4 7 11 </var>
    <var id="x6"> 0 2 4 6 11 </var>
    <var id="x7"> 0 4 6 7 11 </var>
    <var id="x8"> 4 12 16 </var>
    <var id="x9"> 4 12 13 </var>
    <var id="x10"> 0 7 12 16 </var>
    <var id="x11"> 2 4 7 11 12 </var>
    <var id="x12"> 0 2 13 </var>
    <var id="x13"> 0 2 11..13 16 </var>
    <var id="x14"> 0 4 7 </var>
    <var id="x15"> 2 4 7 11 13 </var>
    <var id="x16"> 0 3 4 11 13 </var>
    <var id="x17"> 3 4 13 15 </var>
    <var id="x18"> 0 3 5 </var>
    <var id="x19"> 3 5 13 </var>
    <var id="x20"> 0 1 4 11 </var>
    <var id="x21"> 0 1 5 </var>
    <var id="x22"> 0 3..5 11 </var>
    <var id="x23"> 4 5 13 </var>
    <var id="x24"> 0 3 6 7 </var>
    <var id="x25"> 0 3 5 7 </var>
    <var id="x26"> 0..2 </var>
    <var id="x27"> 0 1 6 7 </var>
    <var id="x28"> 0 1 3 5 6 </var>
    <var id="x29"> 1 2 7 </var>
    <var id="x30"> 0 1 6 7 </var>
    <var id="x31"> 1 3 5 12 16 </var>
    <var id="x32"> 3 5 10 12 16 </var>
    <var id="x33"> 5 6 12 </var>
    <var id="x34"> 3 6 13 </var>
    <var id="x35"> 1 12 13 16 </var>
    <var id="x36"> 1 6 10 </var>
    <var id="x37"> 1 3 13 16 </var>
    <var id="x38"> 1 5 6 12 16 </var>
    <var id="x39"> 3 15 </var>
    <var id="x40"> 0 2 3 15 </var>
    <var id="x41"> 3 5 7 16 </var>
    <var id="x42"> 0 1 5 7 </var>
    <var id="x43"> 0..3 15 16 </var>
    <var id="x44"> 0..2 5 </var>
    <var id="x45"> 1 2 7 </var>
    <var id="x46"> 0 2 3 5 </var>
    <var id="x47"> 2 4 5 7 8 </var>
    <var id="x48"> 0 2 3 </var>
    <var id="x49"> 0 2 16 </var>
    <var id="x50"> 0 4 5 7 8 </var>
    <var id="x51"> 0 2 3 16 </var>
    <var id="x52"> 0 2 4 5 </var>
    <var id="x53"> 0 5 7 16 </var>
    <var id="x54"> 0 2..5 </var>
    <var id="x55"> 3 7 10 11 </var>
    <var id="x56"> 3 10 14 17 </var>
    <var id="x57"> 11 14 16 </var>
    <var id="x58"> 5 7 10 </var>
    <var id="x59"> 3 16 17 </var>
    <var id="x60"> 3 5 14 16 </var>
    <var id="x61"> 5 10 14 16 </var>
    <var id="x62"> 7 11 </var>
    <var id="x63"> 0 5 7 10 12 </var>
    <var id="x64"> 2 4 5 7 12 </var>
    <var id="x65"> 0 1 4 5 7 10 </var>
    <var id="x66"> 0..2 </var>
    <var id="x67"> 1 2 4 7 </var>
    <var id="x68"> 0 1 5 7 12 </var>
    <var id="x69"> 0 2 4 5 12 </var>
    <var id="x70"> 4 5 10 12 </var>
    <var id="x71"> 1 3 4 12 </var>
    <var id="x72"> 3 4 7 10 </var>
    <var id="x73"> 4 7 12 </var>
    <var id="x74"> 1 4 7 10 </var>
    <var id="x75"> 1 3 14 </var>
    <var id="x76"> 1 4 10 17 </var>
    <var id="x77"> 1 4 7 14 </var>
    <var id="x78"> 4 10 12 14 </var>
    <var id="x79"> 3 4 15 </var>
    <var id="x80"> 3 4 10 13 15 </var>
    <var id="x81"> 4 6 7 </var>
    <var id="x82"> 0 3 6 13 15 </var>
    <var id="x83"> 3 7 13 </var>
    <var id="x84"> 0 4 10 </var>
    <var id="x85"> 0 6 7 </var>
    <var id="x86"> 0 3 4 6 </var>
    <var id="x87"> 4 8 12 16 </var>
    <var id="x88"> 4 6 11 13 </var>
    <var id="x89"> 8 12 16 </var>
    <var id="x90"> 6 13 </var>
    <var id="x91"> 8 12..14 16 </var>
    <var id="x92"> 4 6 8 </var>
    <var id="x93"> 6 8 14 16 </var>
    <var id="x94"> 4 6 11 12 </var>
    <var id="x95"> 0 6 10 11 </var>
    <var id="x96"> 10 12 </var>
    <var id="x97"> 6 11 12 </var>
    <var id="x98"> 12 16 </var>
    <var id="x99"> 0 1 11 12 16 </var>
    <var id="x100"> 0 1 9 10 </var>
    <var id="x101"> 0 1 6 12 16 </var>
    <var id="x102"> 9 10 12 16 </var>
    <var id="x103"> 0 4 13 </var>
    <var id="x104"> 4 12 13 15 17 </var>
    <var id="x105"> 0 13 15 17 </var>
    <var id="x106"> 8 12 13 </var>
    <var id="x107"> 0 4 </var>
    <var as="x105" id="x108"/>
    <var id="x109"> 4 12 13 </var>
    <var id="x110"> 12 14 17 </var>
    <var id="x111"> 6 8 12 </var>
    <var id="x112"> 0 1 12 14 </var>
    <var id="x113"> 0 1 6 8 </var>
    <var id="x114"> 0 1 17 </var>
    <var id="x115"> 0 1 9 17 </var>
    <var id="x116"> 0 1 6 12 14 </var>
    <var id="x117"> 0 1 6 12 </var>
    <var id="x118"> 0 5 8 10 12 </var>
    <var id="x119"> 5 8 12 14 </var>
    <var id="x120"> 0 </var>
    <var id="x121"> 0 5 6 8 14 </var>
    <var id="x122"> 0 5 10 </var>
    <var id="x123"> 0 5 6 12 </var>
    <var id="x124"> 0 6 12 </var>
    <var id="x125"> 1 4 5 </var>
    <var id="x126"> 4 6 11 13 </var>
    <var id="x127"> 1 4 6 11 </var>
    <var id="x128"> 1 5 6 14 </var>
    <var id="x129"> 1 2 4 5 </var>
    <var id="x130"> 1 5 6 14 </var>
    <var id="x131"> 2 4..6 11 </var>
    <var id="x132"> 4 5 13 14 </var>
    <var id="x133"> 1 3..5 12 16 </var>
    <var id="x134"> 3 5 12 16 </var>
    <var id="x135"> 3 5 12..14 16 </var>
    <var id="x136"> 1 4 </var>
    <var id="x137"> 1 3 5 14 16 </var>
    <var id="x138"> 1 4 13 14 </var>
    <var id="x139"> 4 5 12..14 16 </var>
    <var id="x140"> 1 4 12 </var>
  </variables>
  <constraints>
    <group>
      <allDifferent> %... </allDifferent>
      <args> x0 x1 x2 x3 x4 x5 x6 x7 </args>
      <args> x8 x9 x10 x11 x12 x13 x14 x15 </args>
      <args> x16 x17 x18 x19 x20 x21 x22 x23 </args>
      <args> x24 x25 x26 x27 x28 x29 x30 </args>
      <args> x31 x32 x33 x34 x35 x36 x37 x38 </args>
      <args> x39 x40 x41 x42 x43 x44 x45 x46 </args>
      <args> x47 x48 x49 x50 x51 x52 x53 x54 </args>
      <args> x55 x56 x57 x58 x59 x60 x61 x62 </args>
      <args> x63 x64 x65 x66 x67 x68 x69 x70 </args>
      <args> x71 x72 x73 x74 x75 x76 x77 x78 </args>
      <args> x79 x80 x81 x82 x83 x84 x85 x86 </args>
      <args> x87 x88 x89 x90 x91 x92 x93 x94 </args>
      <args> x95 x96 x97 x98 x99 x100 x101 x102 </args>
      <args> x103 x104 x105 x106 x107 x108 x109 </args>
      <args> x110 x111 x112 x113 x114 x115 x116 x117 </args>
      <args> x118 x119 x120 x121 x122 x123 x124 </args>
      <args> x125 x126 x127 x128 x129 x130 x131 x132 </args>
      <args> x133 x134 x135 x136 x137 x138 x139 x140 </args>
      <args> x0 x8 x31 x71 x79 x87 x125 x133 </args>
      <args> x16 x24 x55 x72 x88 x95 x103 x126 </args>
      <args> x9 x17 x39 x56 x80 x96 x104 x110 </args>
      <args> x10 x18 x25 x32 x63 x89 x118 x134 </args>
      <args> x11 x33 x47 x64 x73 x81 x97 x111 </args>
      <args> x1 x12 x34 x40 x48 x82 x90 x105 </args>
      <args> x19 x41 x83 x91 x98 x106 x119 x135 </args>
      <args> x2 x13 x26 x35 x49 x57 x99 x112 </args>
      <args> x20 x27 x36 x74 x107 x127 x136 </args>
      <args> x3 x14 x42 x50 x58 x65 x92 x113 </args>
      <args> x37 x43 x51 x59 x66 x108 x114 x120 </args>
      <args> x4 x28 x60 x75 x93 x121 x128 x137 </args>
      <args> x44 x52 x76 x84 x100 x115 x122 x129 </args>
      <args> x5 x15 x29 x45 x67 x77 x138 </args>
      <args> x21 x38 x53 x68 x85 x101 x116 x130 </args>
      <args> x6 x22 x46 x54 x69 x86 x123 x131 </args>
      <args> x23 x61 x70 x78 x102 x109 x132 x139 </args>
      <args> x7 x30 x62 x94 x117 x124 x140 </args>
    </group>
  </constraints>
</instance>

